-258.0 6.0 2.0 5.0 4.0 8.0 7.0 6.0 4.0 3.0 6.0 4.0 6.0 4.0 10.0 7.0 2.0 8.0 8.0 7.0 5.0 8.0 3.0 0.0 2.0 0.0 6.0 2.0 2.0 7.0 2.0 9.0 9.0 3.0 10.0 1.0 10.0 0.0 2.0 4.0 0.0 2.0 10.0 8.0 4.0 4.0 2.0 3.0 9.0 8.0 8.0 8.0 
6.0 -267.0 7.0 7.0 7.0 8.0 7.0 5.0 6.0 4.0 10.0 10.0 4.0 3.0 4.0 3.0 8.0 10.0 1.0 9.0 10.0 10.0 2.0 7.0 7.0 10.0 2.0 9.0 8.0 4.0 3.0 2.0 6.0 9.0 6.0 9.0 4.0 1.0 2.0 7.0 2.0 4.0 5.0 7.0 1.0 7.0 1.0 3.0 0.0 0.0 0.0 0.0 
2.0 7.0 -300.0 8.0 5.0 7.0 6.0 10.0 4.0 9.0 1.0 7.0 3.0 6.0 7.0 4.0 7.0 6.0 8.0 10.0 2.0 9.0 1.0 1.0 10.0 0.0 5.0 10.0 10.0 3.0 8.0 6.0 8.0 8.0 9.0 2.0 7.0 7.0 7.0 8.0 7.0 9.0 2.0 5.0 0.0 9.0 2.0 2.0 5.0 10.0 10.0 1.0 
5.0 7.0 8.0 -294.0 1.0 1.0 7.0 5.0 0.0 8.0 7.0 8.0 9.0 1.0 5.0 8.0 4.0 9.0 9.0 2.0 9.0 3.0 9.0 8.0 9.0 6.0 5.0 8.0 5.0 5.0 9.0 4.0 5.0 0.0 10.0 5.0 3.0 6.0 0.0 9.0 3.0 1.0 6.0 10.0 9.0 10.0 4.0 7.0 5.0 1.0 7.0 9.0 
4.0 7.0 5.0 1.0 -250.0 0.0 2.0 1.0 3.0 8.0 5.0 6.0 10.0 6.0 1.0 8.0 7.0 7.0 5.0 5.0 2.0 1.0 2.0 3.0 5.0 2.0 10.0 7.0 3.0 5.0 8.0 7.0 9.0 8.0 9.0 8.0 6.0 3.0 10.0 0.0 1.0 0.0 4.0 3.0 7.0 1.0 10.0 10.0 5.0 5.0 4.0 1.0 
8.0 8.0 7.0 1.0 0.0 -272.0 5.0 10.0 9.0 9.0 9.0 3.0 8.0 9.0 3.0 3.0 0.0 2.0 6.0 5.0 1.0 7.0 7.0 9.0 9.0 4.0 5.0 5.0 6.0 6.0 8.0 0.0 1.0 9.0 4.0 4.0 5.0 8.0 8.0 10.0 6.0 10.0 4.0 4.0 0.0 5.0 0.0 0.0 9.0 3.0 10.0 0.0 
7.0 7.0 6.0 7.0 2.0 5.0 -279.0 10.0 3.0 9.0 6.0 4.0 4.0 0.0 2.0 7.0 3.0 7.0 8.0 0.0 9.0 0.0 5.0 7.0 5.0 7.0 8.0 10.0 5.0 7.0 7.0 6.0 1.0 2.0 8.0 7.0 1.0 8.0 0.0 0.0 5.0 3.0 6.0 9.0 3.0 8.0 6.0 6.0 8.0 10.0 10.0 5.0 
6.0 5.0 10.0 5.0 1.0 10.0 10.0 -273.0 4.0 2.0 7.0 8.0 7.0 7.0 4.0 8.0 0.0 10.0 2.0 0.0 3.0 8.0 1.0 8.0 5.0 7.0 3.0 3.0 0.0 9.0 4.0 8.0 1.0 1.0 9.0 1.0 7.0 6.0 2.0 5.0 5.0 8.0 5.0 10.0 6.0 2.0 8.0 10.0 6.0 5.0 7.0 4.0 
4.0 6.0 4.0 0.0 3.0 9.0 3.0 4.0 -245.0 4.0 8.0 0.0 9.0 8.0 5.0 3.0 2.0 5.0 7.0 0.0 4.0 3.0 2.0 0.0 7.0 6.0 1.0 6.0 0.0 7.0 10.0 4.0 4.0 2.0 10.0 4.0 4.0 0.0 10.0 10.0 7.0 2.0 5.0 1.0 2.0 7.0 7.0 8.0 8.0 8.0 9.0 3.0 
3.0 4.0 9.0 8.0 8.0 9.0 9.0 2.0 4.0 -268.0 5.0 9.0 3.0 0.0 4.0 10.0 2.0 2.0 9.0 8.0 9.0 0.0 4.0 6.0 8.0 8.0 0.0 0.0 6.0 3.0 6.0 0.0 8.0 5.0 1.0 9.0 3.0 1.0 7.0 2.0 6.0 10.0 10.0 4.0 7.0 3.0 7.0 7.0 8.0 4.0 0.0 8.0 
6.0 10.0 1.0 7.0 5.0 9.0 6.0 7.0 8.0 5.0 -258.0 0.0 1.0 9.0 3.0 2.0 0.0 4.0 6.0 6.0 4.0 2.0 7.0 0.0 10.0 0.0 8.0 7.0 6.0 3.0 9.0 5.0 8.0 4.0 4.0 3.0 0.0 9.0 5.0 5.0 5.0 7.0 5.0 3.0 6.0 6.0 4.0 10.0 2.0 7.0 4.0 5.0 
4.0 10.0 7.0 8.0 6.0 3.0 4.0 8.0 0.0 9.0 0.0 -257.0 4.0 0.0 7.0 4.0 8.0 0.0 10.0 0.0 3.0 3.0 2.0 10.0 8.0 9.0 6.0 1.0 0.0 3.0 6.0 6.0 10.0 6.0 6.0 2.0 2.0 9.0 6.0 8.0 5.0 4.0 6.0 9.0 8.0 1.0 4.0 4.0 6.0 3.0 7.0 2.0 
6.0 4.0 3.0 9.0 10.0 8.0 4.0 7.0 9.0 3.0 1.0 4.0 -321.0 5.0 2.0 10.0 6.0 8.0 7.0 5.0 6.0 1.0 4.0 10.0 8.0 4.0 8.0 8.0 9.0 8.0 9.0 4.0 7.0 8.0 4.0 10.0 1.0 10.0 10.0 9.0 8.0 6.0 2.0 6.0 8.0 10.0 3.0 5.0 3.0 8.0 7.0 6.0 
4.0 3.0 6.0 1.0 6.0 9.0 0.0 7.0 8.0 0.0 9.0 0.0 5.0 -244.0 2.0 4.0 7.0 7.0 2.0 9.0 0.0 7.0 9.0 2.0 2.0 9.0 5.0 7.0 2.0 10.0 10.0 1.0 8.0 5.0 8.0 6.0 4.0 0.0 3.0 3.0 2.0 3.0 9.0 0.0 9.0 6.0 6.0 4.0 1.0 6.0 7.0 1.0 
10.0 4.0 7.0 5.0 1.0 3.0 2.0 4.0 5.0 4.0 3.0 7.0 2.0 2.0 -265.0 2.0 7.0 10.0 7.0 5.0 10.0 4.0 2.0 10.0 4.0 5.0 0.0 2.0 8.0 9.0 7.0 3.0 5.0 4.0 0.0 9.0 4.0 9.0 6.0 8.0 8.0 3.0 6.0 6.0 6.0 8.0 2.0 10.0 0.0 7.0 9.0 1.0 
7.0 3.0 4.0 8.0 8.0 3.0 7.0 8.0 3.0 10.0 2.0 4.0 10.0 4.0 2.0 -308.0 2.0 9.0 7.0 7.0 8.0 4.0 10.0 5.0 10.0 2.0 5.0 8.0 5.0 2.0 7.0 6.0 6.0 8.0 10.0 8.0 8.0 10.0 2.0 2.0 8.0 9.0 7.0 2.0 5.0 8.0 9.0 10.0 4.0 2.0 7.0 3.0 
2.0 8.0 7.0 4.0 7.0 0.0 3.0 0.0 2.0 2.0 0.0 8.0 6.0 7.0 7.0 2.0 -232.0 2.0 2.0 1.0 1.0 7.0 9.0 9.0 5.0 6.0 10.0 7.0 7.0 3.0 3.0 9.0 10.0 0.0 0.0 4.0 4.0 5.0 3.0 7.0 3.0 1.0 4.0 8.0 5.0 0.0 7.0 7.0 5.0 6.0 0.0 7.0 
8.0 10.0 6.0 9.0 7.0 2.0 7.0 10.0 5.0 2.0 4.0 0.0 8.0 7.0 10.0 9.0 2.0 -258.0 1.0 10.0 4.0 10.0 3.0 10.0 4.0 0.0 0.0 2.0 0.0 5.0 2.0 2.0 0.0 0.0 6.0 0.0 7.0 8.0 7.0 4.0 9.0 5.0 3.0 6.0 6.0 3.0 8.0 5.0 5.0 4.0 3.0 10.0 
8.0 1.0 8.0 9.0 5.0 6.0 8.0 2.0 7.0 9.0 6.0 10.0 7.0 2.0 7.0 7.0 2.0 1.0 -276.0 3.0 0.0 3.0 4.0 5.0 5.0 8.0 2.0 7.0 0.0 4.0 9.0 9.0 10.0 4.0 7.0 5.0 5.0 0.0 7.0 2.0 10.0 0.0 1.0 9.0 9.0 2.0 3.0 6.0 10.0 7.0 6.0 9.0 
7.0 9.0 10.0 2.0 5.0 5.0 0.0 0.0 0.0 8.0 6.0 0.0 5.0 9.0 5.0 7.0 1.0 10.0 3.0 -274.0 6.0 5.0 9.0 6.0 3.0 1.0 6.0 0.0 3.0 2.0 10.0 4.0 6.0 8.0 9.0 0.0 5.0 6.0 8.0 0.0 10.0 0.0 6.0 6.0 9.0 10.0 7.0 10.0 5.0 8.0 10.0 4.0 
5.0 10.0 2.0 9.0 2.0 1.0 9.0 3.0 4.0 9.0 4.0 3.0 6.0 0.0 10.0 8.0 1.0 4.0 0.0 6.0 -277.0 2.0 10.0 4.0 6.0 9.0 5.0 1.0 5.0 9.0 8.0 9.0 5.0 5.0 5.0 0.0 3.0 10.0 6.0 8.0 9.0 6.0 9.0 2.0 10.0 4.0 2.0 9.0 4.0 2.0 6.0 8.0 
8.0 10.0 9.0 3.0 1.0 7.0 0.0 8.0 3.0 0.0 2.0 3.0 1.0 7.0 4.0 4.0 7.0 10.0 3.0 5.0 2.0 -268.0 1.0 5.0 10.0 9.0 2.0 8.0 10.0 6.0 8.0 3.0 8.0 9.0 8.0 1.0 6.0 5.0 4.0 4.0 7.0 10.0 1.0 9.0 0.0 9.0 9.0 6.0 1.0 5.0 3.0 4.0 
3.0 2.0 1.0 9.0 2.0 7.0 5.0 1.0 2.0 4.0 7.0 2.0 4.0 9.0 2.0 10.0 9.0 3.0 4.0 9.0 10.0 1.0 -259.0 4.0 10.0 1.0 9.0 7.0 6.0 5.0 8.0 8.0 4.0 5.0 1.0 7.0 5.0 2.0 3.0 7.0 7.0 3.0 3.0 3.0 9.0 7.0 4.0 9.0 2.0 10.0 2.0 2.0 
0.0 7.0 1.0 8.0 3.0 9.0 7.0 8.0 0.0 6.0 0.0 10.0 10.0 2.0 10.0 5.0 9.0 10.0 5.0 6.0 4.0 5.0 4.0 -285.0 3.0 9.0 5.0 7.0 9.0 9.0 9.0 4.0 3.0 6.0 8.0 1.0 10.0 5.0 5.0 9.0 6.0 10.0 0.0 3.0 8.0 2.0 7.0 6.0 1.0 5.0 6.0 0.0 
2.0 7.0 10.0 9.0 5.0 9.0 5.0 5.0 7.0 8.0 10.0 8.0 8.0 2.0 4.0 10.0 5.0 4.0 5.0 3.0 6.0 10.0 10.0 3.0 -307.0 9.0 1.0 7.0 0.0 9.0 10.0 1.0 4.0 10.0 4.0 0.0 8.0 7.0 1.0 5.0 4.0 10.0 9.0 3.0 7.0 0.0 8.0 3.0 9.0 10.0 9.0 4.0 
0.0 10.0 0.0 6.0 2.0 4.0 7.0 7.0 6.0 8.0 0.0 9.0 4.0 9.0 5.0 2.0 6.0 0.0 8.0 1.0 9.0 9.0 1.0 9.0 9.0 -274.0 9.0 7.0 2.0 5.0 2.0 4.0 9.0 4.0 9.0 1.0 8.0 5.0 2.0 5.0 4.0 1.0 0.0 9.0 8.0 7.0 3.0 7.0 8.0 7.0 9.0 8.0 
6.0 2.0 5.0 5.0 10.0 5.0 8.0 3.0 1.0 0.0 8.0 6.0 8.0 5.0 0.0 5.0 10.0 0.0 2.0 6.0 5.0 2.0 9.0 5.0 1.0 9.0 -254.0 7.0 8.0 9.0 4.0 2.0 1.0 6.0 6.0 6.0 1.0 7.0 8.0 3.0 6.0 10.0 9.0 8.0 5.0 0.0 6.0 2.0 3.0 2.0 3.0 6.0 
2.0 9.0 10.0 8.0 7.0 5.0 10.0 3.0 6.0 0.0 7.0 1.0 8.0 7.0 2.0 8.0 7.0 2.0 7.0 0.0 1.0 8.0 7.0 7.0 7.0 7.0 7.0 -269.0 2.0 7.0 0.0 1.0 5.0 0.0 1.0 7.0 6.0 0.0 8.0 2.0 10.0 6.0 0.0 5.0 9.0 7.0 4.0 10.0 10.0 5.0 9.0 2.0 
2.0 8.0 10.0 5.0 3.0 6.0 5.0 0.0 0.0 6.0 6.0 0.0 9.0 2.0 8.0 5.0 7.0 0.0 0.0 3.0 5.0 10.0 6.0 9.0 0.0 2.0 8.0 2.0 -200.0 10.0 6.0 1.0 3.0 5.0 0.0 0.0 9.0 0.0 8.0 4.0 2.0 0.0 0.0 8.0 4.0 0.0 0.0 0.0 0.0 1.0 2.0 10.0 
7.0 4.0 3.0 5.0 5.0 6.0 7.0 9.0 7.0 3.0 3.0 3.0 8.0 10.0 9.0 2.0 3.0 5.0 4.0 2.0 9.0 6.0 5.0 9.0 9.0 5.0 9.0 7.0 10.0 -265.0 3.0 5.0 5.0 0.0 0.0 9.0 7.0 4.0 5.0 2.0 0.0 4.0 10.0 5.0 1.0 8.0 5.0 1.0 7.0 2.0 8.0 0.0 
2.0 3.0 8.0 9.0 8.0 8.0 7.0 4.0 10.0 6.0 9.0 6.0 9.0 10.0 7.0 7.0 3.0 2.0 9.0 10.0 8.0 8.0 8.0 9.0 10.0 2.0 4.0 0.0 6.0 3.0 -298.0 0.0 4.0 5.0 7.0 1.0 0.0 3.0 4.0 10.0 6.0 7.0 2.0 10.0 4.0 9.0 0.0 10.0 0.0 8.0 10.0 3.0 
9.0 2.0 6.0 4.0 7.0 0.0 6.0 8.0 4.0 0.0 5.0 6.0 4.0 1.0 3.0 6.0 9.0 2.0 9.0 4.0 9.0 3.0 8.0 4.0 1.0 4.0 2.0 1.0 1.0 5.0 0.0 -242.0 5.0 3.0 10.0 2.0 0.0 3.0 9.0 6.0 7.0 7.0 3.0 9.0 3.0 8.0 2.0 3.0 5.0 9.0 5.0 10.0 
9.0 6.0 8.0 5.0 9.0 1.0 1.0 1.0 4.0 8.0 8.0 10.0 7.0 8.0 5.0 6.0 10.0 0.0 10.0 6.0 5.0 8.0 4.0 3.0 4.0 9.0 1.0 5.0 3.0 5.0 4.0 5.0 -281.0 8.0 5.0 2.0 2.0 6.0 6.0 6.0 7.0 4.0 6.0 7.0 4.0 8.0 3.0 10.0 5.0 0.0 9.0 5.0 
3.0 9.0 8.0 0.0 8.0 9.0 2.0 1.0 2.0 5.0 4.0 6.0 8.0 5.0 4.0 8.0 0.0 0.0 4.0 8.0 5.0 9.0 5.0 6.0 10.0 4.0 6.0 0.0 5.0 0.0 5.0 3.0 8.0 -254.0 3.0 1.0 2.0 7.0 7.0 8.0 4.0 6.0 2.0 10.0 7.0 5.0 5.0 10.0 4.0 4.0 1.0 8.0 
10.0 6.0 9.0 10.0 9.0 4.0 8.0 9.0 10.0 1.0 4.0 6.0 4.0 8.0 0.0 10.0 0.0 6.0 7.0 9.0 5.0 8.0 1.0 8.0 4.0 9.0 6.0 1.0 0.0 0.0 7.0 10.0 5.0 3.0 -301.0 3.0 5.0 10.0 2.0 10.0 9.0 8.0 10.0 3.0 0.0 7.0 7.0 10.0 7.0 4.0 3.0 6.0 
1.0 9.0 2.0 5.0 8.0 4.0 7.0 1.0 4.0 9.0 3.0 2.0 10.0 6.0 9.0 8.0 4.0 0.0 5.0 0.0 0.0 1.0 7.0 1.0 0.0 1.0 6.0 7.0 0.0 9.0 1.0 2.0 2.0 1.0 3.0 -226.0 1.0 8.0 9.0 0.0 6.0 7.0 0.0 0.0 3.0 5.0 9.0 5.0 9.0 10.0 10.0 6.0 
10.0 4.0 7.0 3.0 6.0 5.0 1.0 7.0 4.0 3.0 0.0 2.0 1.0 4.0 4.0 8.0 4.0 7.0 5.0 5.0 3.0 6.0 5.0 10.0 8.0 8.0 1.0 6.0 9.0 7.0 0.0 0.0 2.0 2.0 5.0 1.0 -223.0 3.0 7.0 2.0 1.0 1.0 4.0 8.0 8.0 4.0 5.0 0.0 4.0 0.0 6.0 7.0 
0.0 1.0 7.0 6.0 3.0 8.0 8.0 6.0 0.0 1.0 9.0 9.0 10.0 0.0 9.0 10.0 5.0 8.0 0.0 6.0 10.0 5.0 2.0 5.0 7.0 5.0 7.0 0.0 0.0 4.0 3.0 3.0 6.0 7.0 10.0 8.0 3.0 -243.0 0.0 7.0 0.0 8.0 0.0 6.0 8.0 0.0 3.0 9.0 2.0 6.0 0.0 3.0 
2.0 2.0 7.0 0.0 10.0 8.0 0.0 2.0 10.0 7.0 5.0 6.0 10.0 3.0 6.0 2.0 3.0 7.0 7.0 8.0 6.0 4.0 3.0 5.0 1.0 2.0 8.0 8.0 8.0 5.0 4.0 9.0 6.0 7.0 2.0 9.0 7.0 0.0 -267.0 10.0 6.0 7.0 0.0 4.0 4.0 9.0 7.0 1.0 4.0 4.0 2.0 10.0 
4.0 7.0 8.0 9.0 0.0 10.0 0.0 5.0 10.0 2.0 5.0 8.0 9.0 3.0 8.0 2.0 7.0 4.0 2.0 0.0 8.0 4.0 7.0 9.0 5.0 5.0 3.0 2.0 4.0 2.0 10.0 6.0 6.0 8.0 10.0 0.0 2.0 7.0 10.0 -273.0 10.0 8.0 0.0 10.0 6.0 9.0 4.0 0.0 0.0 7.0 2.0 6.0 
0.0 2.0 7.0 3.0 1.0 6.0 5.0 5.0 7.0 6.0 5.0 5.0 8.0 2.0 8.0 8.0 3.0 9.0 10.0 10.0 9.0 7.0 7.0 6.0 4.0 4.0 6.0 10.0 2.0 0.0 6.0 7.0 7.0 4.0 9.0 6.0 1.0 0.0 6.0 10.0 -282.0 3.0 5.0 5.0 2.0 1.0 8.0 5.0 7.0 9.0 6.0 10.0 
2.0 4.0 9.0 1.0 0.0 10.0 3.0 8.0 2.0 10.0 7.0 4.0 6.0 3.0 3.0 9.0 1.0 5.0 0.0 0.0 6.0 10.0 3.0 10.0 10.0 1.0 10.0 6.0 0.0 4.0 7.0 7.0 4.0 6.0 8.0 7.0 1.0 8.0 7.0 8.0 3.0 -273.0 4.0 4.0 0.0 6.0 9.0 10.0 10.0 1.0 6.0 10.0 
10.0 5.0 2.0 6.0 4.0 4.0 6.0 5.0 5.0 10.0 5.0 6.0 2.0 9.0 6.0 7.0 4.0 3.0 1.0 6.0 9.0 1.0 3.0 0.0 9.0 0.0 9.0 0.0 0.0 10.0 2.0 3.0 6.0 2.0 10.0 0.0 4.0 0.0 0.0 0.0 5.0 4.0 -208.0 0.0 5.0 0.0 10.0 1.0 2.0 0.0 7.0 0.0 
8.0 7.0 5.0 10.0 3.0 4.0 9.0 10.0 1.0 4.0 3.0 9.0 6.0 0.0 6.0 2.0 8.0 6.0 9.0 6.0 2.0 9.0 3.0 3.0 3.0 9.0 8.0 5.0 8.0 5.0 10.0 9.0 7.0 10.0 3.0 0.0 8.0 6.0 4.0 10.0 5.0 4.0 0.0 -274.0 6.0 1.0 4.0 1.0 9.0 2.0 3.0 1.0 
4.0 1.0 0.0 9.0 7.0 0.0 3.0 6.0 2.0 7.0 6.0 8.0 8.0 9.0 6.0 5.0 5.0 6.0 9.0 9.0 10.0 0.0 9.0 8.0 7.0 8.0 5.0 9.0 4.0 1.0 4.0 3.0 4.0 7.0 0.0 3.0 8.0 8.0 4.0 6.0 2.0 0.0 5.0 6.0 -246.0 4.0 4.0 1.0 2.0 1.0 1.0 2.0 
4.0 7.0 9.0 10.0 1.0 5.0 8.0 2.0 7.0 3.0 6.0 1.0 10.0 6.0 8.0 8.0 0.0 3.0 2.0 10.0 4.0 9.0 7.0 2.0 0.0 7.0 0.0 7.0 0.0 8.0 9.0 8.0 8.0 5.0 7.0 5.0 4.0 0.0 9.0 9.0 1.0 6.0 0.0 1.0 4.0 -275.0 6.0 8.0 6.0 10.0 9.0 6.0 
2.0 1.0 2.0 4.0 10.0 0.0 6.0 8.0 7.0 7.0 4.0 4.0 3.0 6.0 2.0 9.0 7.0 8.0 3.0 7.0 2.0 9.0 4.0 7.0 8.0 3.0 6.0 4.0 0.0 5.0 0.0 2.0 3.0 5.0 7.0 9.0 5.0 3.0 7.0 4.0 8.0 9.0 10.0 4.0 4.0 6.0 -255.0 5.0 0.0 5.0 3.0 8.0 
3.0 3.0 2.0 7.0 10.0 0.0 6.0 10.0 8.0 7.0 10.0 4.0 5.0 4.0 10.0 10.0 7.0 5.0 6.0 10.0 9.0 6.0 9.0 6.0 3.0 7.0 2.0 10.0 0.0 1.0 10.0 3.0 10.0 10.0 10.0 5.0 0.0 9.0 1.0 0.0 5.0 10.0 1.0 1.0 1.0 8.0 5.0 -286.0 1.0 9.0 2.0 5.0 
9.0 0.0 5.0 5.0 5.0 9.0 8.0 6.0 8.0 8.0 2.0 6.0 3.0 1.0 0.0 4.0 5.0 5.0 10.0 5.0 4.0 1.0 2.0 1.0 9.0 8.0 3.0 10.0 0.0 7.0 0.0 5.0 5.0 4.0 7.0 9.0 4.0 2.0 4.0 0.0 7.0 10.0 2.0 9.0 2.0 6.0 0.0 1.0 -234.0 2.0 4.0 2.0 
8.0 0.0 10.0 1.0 5.0 3.0 10.0 5.0 8.0 4.0 7.0 3.0 8.0 6.0 7.0 2.0 6.0 4.0 7.0 8.0 2.0 5.0 10.0 5.0 10.0 7.0 2.0 5.0 1.0 2.0 8.0 9.0 0.0 4.0 4.0 10.0 0.0 6.0 4.0 7.0 9.0 1.0 0.0 2.0 1.0 10.0 5.0 9.0 2.0 -259.0 3.0 4.0 
8.0 0.0 10.0 7.0 4.0 10.0 10.0 7.0 9.0 0.0 4.0 7.0 7.0 7.0 9.0 7.0 0.0 3.0 6.0 10.0 6.0 3.0 2.0 6.0 9.0 9.0 3.0 9.0 2.0 8.0 10.0 5.0 9.0 1.0 3.0 10.0 6.0 0.0 2.0 2.0 6.0 6.0 7.0 3.0 1.0 9.0 3.0 2.0 4.0 3.0 -276.0 2.0 
8.0 0.0 1.0 9.0 1.0 0.0 5.0 4.0 3.0 8.0 5.0 2.0 6.0 1.0 1.0 3.0 7.0 10.0 9.0 4.0 8.0 4.0 2.0 0.0 4.0 8.0 6.0 2.0 10.0 0.0 3.0 10.0 5.0 8.0 6.0 6.0 7.0 3.0 10.0 6.0 10.0 10.0 0.0 1.0 2.0 6.0 8.0 5.0 2.0 4.0 2.0 -245.0 

